Data path: /scratch/opt/lxu/CFLG/benchmarks/random_B
Instance: r_40_0.4_297.txt
Result path: /scratch/opt/lxu/CFLG/results/random_B
Solver: Gurobi
Time limit: 7200
Formulation: LEFPAI
Cover: Small
julia --project=. src/main.jl /scratch/opt/lxu/CFLG/benchmarks/random_B r_40_0.4_297.txt /scratch/opt/lxu/CFLG/results/random_B Gurobi 7200 LEFPAI Small
The latest version of Julia in the `release` channel is 1.11.5+0.x64.linux.gnu. You currently have `1.11.4+0.x64.linux.gnu` installed. Run:

  juliaup update

in your terminal shell to install Julia 1.11.5+0.x64.linux.gnu and update the `release` channel to that version.
/scratch/opt/lxu/CFLG/benchmarks/random_B Gurobi 7200.0 /scratch/opt/lxu/CFLG/results/random_B r_40_0.4_297.txt LEFPAI Small
/scratch/opt/lxu/CFLG/benchmarks/random_B/r_40_0.4_297.txt

 read graph
data loaded


after absorb:40 40

max_piece:8
problem_graph/original graph: node: 59/40 edge: 316/297 dlt: 0.15732064946284197 break_avg_len: 0.5914459859552413 break_max_len: 0.9985183215968443Vbar/V, Ebar/E(59, 59, 316, 316)
Set parameter TokenServer to value "solice01.zib.de"
Set parameter Threads to value 1
Set parameter OutputFlag to value 1
Gurobi Optimizer version 12.0.1 build v12.0.1rc0 (linux64 - "Debian GNU/Linux 12 (bookworm)")

CPU model: Intel(R) Xeon(R) Gold 5222 CPU @ 3.80GHz, instruction set [SSE2|AVX|AVX2|AVX512]
Thread count: 8 physical cores, 16 logical processors, using up to 1 threads

Non-default parameters:
Threads  1

Optimize a model with 375 rows, 948 columns and 1580 nonzeros
Model fingerprint: 0xe6bd1eb3
Coefficient statistics:
  Matrix range     [1e+00, 1e+00]
  Objective range  [1e+00, 1e+00]
  Bounds range     [1e+00, 1e+00]
  RHS range        [0e+00, 0e+00]
Presolve removed 375 rows and 948 columns
Presolve time: 0.00s
Presolve: All rows and columns removed
Iteration    Objective       Primal Inf.    Dual Inf.      Time
       0   -0.0000000e+00   0.000000e+00   0.000000e+00      0s

Solved in 0 iterations and 0.00 seconds (0.00 work units)
Optimal objective -0.000000000e+00

User-callback calls 35, time in user-callback 0.00 sec
elapsed CPU time: 1.02151 seconds
Set parameter TokenServer to value "solice01.zib.de"
Set parameter Threads to value 1
Set parameter OutputFlag to value 1
Set parameter MIPGap to value 0.0001
Set parameter MIPGapAbs to value 0.999998
Set parameter TimeLimit to value 7198.97849

 more cuts: false 0.15732064946284197 false
is_attach:trueformulation:LEFPAI0 316 0

 model loaded

Gurobi Optimizer version 12.0.1 build v12.0.1rc0 (linux64 - "Debian GNU/Linux 12 (bookworm)")

CPU model: Intel(R) Xeon(R) Gold 5222 CPU @ 3.80GHz, instruction set [SSE2|AVX|AVX2|AVX512]
Thread count: 8 physical cores, 16 logical processors, using up to 1 threads

Non-default parameters:
TimeLimit  7198.97849
MIPGapAbs  0.999998
Threads  1

Optimize a model with 2607 rows, 2725 columns and 6755 nonzeros
Model fingerprint: 0xc64a6dc7
Model has 1343 simple general constraints
  1343 INDICATOR
Variable types: 691 continuous, 2034 integer (2034 binary)
Coefficient statistics:
  Matrix range     [1e-01, 1e+00]
  Objective range  [1e+00, 1e+00]
  Bounds range     [1e-01, 1e+00]
  RHS range        [1e-01, 1e+00]
  GenCon rhs range [2e-07, 1e+00]
  GenCon coe range [1e+00, 1e+00]
Presolve removed 1783 rows and 1867 columns
Presolve time: 0.05s
Presolved: 824 rows, 858 columns, 5420 nonzeros
Variable types: 189 continuous, 669 integer (669 binary)
Found heuristic solution: objective 306.0000000
Found heuristic solution: objective 305.0000000
Found heuristic solution: objective 304.0000000

Root relaxation: objective 2.780000e+02, 210 iterations, 0.00 seconds (0.00 work units)

    Nodes    |    Current Node    |     Objective Bounds      |     Work
 Expl Unexpl |  Obj  Depth IntInf | Incumbent    BestBd   Gap | It/Node Time

     0     0  278.00000    0    4  304.00000  278.00000  8.55%     -    0s
H    0     0                     278.0000000  278.00000  0.00%     -    0s
     0     0  278.00000    0    4  278.00000  278.00000  0.00%     -    0s

Explored 1 nodes (210 simplex iterations) in 0.06 seconds (0.05 work units)
Thread count was 1 (of 16 available processors)

Solution count 4: 278 304 305 306 

Optimal solution found (tolerance 1.00e-04)
Warning: max constraint violation (1.1573e-06) exceeds tolerance
Warning: max general constraint violation (1.1573e-06) exceeds tolerance
Best objective 2.780000000000e+02, best bound 2.780000000000e+02, gap 0.0000%

User-callback calls 1131, time in user-callback 0.00 sec

 sepatime0 0 0
278.0Stat(MathOptInterface.OPTIMAL, 278.0, 278.0, 0.0, 0.0, 1.02151, 0.05654621124267578, 1, Main.CFLG.LEFPAI, "", #undef)
